(declare-const in0 Int)
(declare-const in2 Int)
(declare-const in1 Int)
(declare-const in4 Int)
(declare-const in3 Int)
(declare-const in6 Int)
(declare-const in5 Int)
(declare-const in8 Int)
(declare-const in7 Int)
(declare-const in11 Int)
(declare-const in10 Int)
(declare-const in9 Int)
(declare-const in12 Int)

(assert (and (and (and (and (and (and (and (and (and (and (and (and  ( ==  in0 1)  ( ==  in1 0))  ( ==  in2 1))  ( ==  in3 0))  ( ==  in4 1))  ( ==  in5 0))  ( ==  in6 1))  ( ==  in7 0))  ( ==  in8 1))  ( ==  in9 0))  ( ==  in10 1))  ( ==  in11 0))  ( ==  in12 1)))

(check-sat)
(get-model)